;; translated from ./bv/nest-if8.c.vmt
;; original benchmark available at: https://es-static.fbk.eu/people/griggio/ic3ia/index.html
;; author: Alberto Griggio <griggio@fbk.eu>
(set-logic HORN)
(declare-fun state (Bool Bool Bool (_ BitVec 32) (_ BitVec 32) (_ BitVec 32) (_ BitVec 32) (_ BitVec 32)) Bool)
(assert (forall ((|.PC.0.next| Bool) (|.PC.1.next| Bool) (|.PC.2.next| Bool) (|m__9$main| (_ BitVec 32)) (|m__9$main.next| (_ BitVec 32)) (|j__3$main.next| (_ BitVec 32)) (|j__3$main| (_ BitVec 32)) (|__RET__$main.next| (_ BitVec 32)) (|__RET__$main| (_ BitVec 32)) (|n__7$main| (_ BitVec 32)) (|n__7$main.next| (_ BitVec 32)) (|i__1$main| (_ BitVec 32)) (|i__1$main.next| (_ BitVec 32)) (|__NONDET_INLINE_INIT__10__9$main#1| (_ BitVec 32)) (|__NONDET_INLINE_INIT__8__8$main#0| (_ BitVec 32)) (|.PC.2| Bool) (|.PC.1| Bool) (|.PC.0| Bool)) (=> (let ((.def_15 (not .PC.2)))
(let ((.def_12 (not .PC.1)))
(let ((.def_10 (not .PC.0)))
(let ((.def_13 (and .def_10 .def_12)))
(let ((.def_16 (and .def_13 .def_15)))
.def_16))))) (state |.PC.0| |.PC.1| |.PC.2| |j__3$main| |__RET__$main| |n__7$main| |i__1$main| |m__9$main|))))
(assert (forall ((|.PC.0.next| Bool) (|.PC.1.next| Bool) (|.PC.2.next| Bool) (|m__9$main| (_ BitVec 32)) (|m__9$main.next| (_ BitVec 32)) (|j__3$main.next| (_ BitVec 32)) (|j__3$main| (_ BitVec 32)) (|__RET__$main.next| (_ BitVec 32)) (|__RET__$main| (_ BitVec 32)) (|n__7$main| (_ BitVec 32)) (|n__7$main.next| (_ BitVec 32)) (|i__1$main| (_ BitVec 32)) (|i__1$main.next| (_ BitVec 32)) (|__NONDET_INLINE_INIT__10__9$main#1| (_ BitVec 32)) (|__NONDET_INLINE_INIT__8__8$main#0| (_ BitVec 32)) (|.PC.2| Bool) (|.PC.1| Bool) (|.PC.0| Bool)) (=> (and (state |.PC.0| |.PC.1| |.PC.2| |j__3$main| |__RET__$main| |n__7$main| |i__1$main| |m__9$main|) (let ((.def_10 (not .PC.0)))
(let ((.def_121 (and .def_10 .PC.1)))
(let ((.def_122 (and .PC.2 .def_121)))
(let ((.def_64 (not .PC.0.next)))
(let ((.def_116 (and .PC.1.next .def_64)))
(let ((.def_117 (and .PC.2.next .def_116)))
(let ((.def_123 (and .def_117 .def_122)))
(let ((.def_57 (= m__9$main.next m__9$main)))
(let ((.def_34 (= j__3$main j__3$main.next)))
(let ((.def_112 (and .def_34 .def_57)))
(let ((.def_38 (= __RET__$main __RET__$main.next)))
(let ((.def_113 (and .def_38 .def_112)))
(let ((.def_60 (= n__7$main.next n__7$main)))
(let ((.def_114 (and .def_60 .def_113)))
(let ((.def_62 (= i__1$main.next i__1$main)))
(let ((.def_115 (and .def_62 .def_114)))
(let ((.def_118 (and .def_115 .def_117)))
(let ((.def_12 (not .PC.1)))
(let ((.def_49 (and .PC.0 .def_12)))
(let ((.def_111 (and .PC.2 .def_49)))
(let ((.def_119 (and .def_111 .def_118)))
(let ((.def_101 (bvadd (_ bv2 32) j__3$main)))
(let ((.def_102 (= j__3$main.next .def_101)))
(let ((.def_84 (bvadd j__3$main n__7$main)))
(let ((.def_86 (bvadd (_ bv5 32) .def_84)))
(let ((.def_87 (bvslt i__1$main .def_86)))
(let ((.def_70 (bvslt j__3$main m__9$main)))
(let ((.def_99 (and .def_70 .def_87)))
(let ((.def_103 (and .def_99 .def_102)))
(let ((.def_104 (and .def_57 .def_103)))
(let ((.def_105 (and .def_38 .def_104)))
(let ((.def_106 (and .def_60 .def_105)))
(let ((.def_107 (and .def_62 .def_106)))
(let ((.def_43 (not .PC.1.next)))
(let ((.def_65 (and .def_43 .def_64)))
(let ((.def_66 (and .PC.2.next .def_65)))
(let ((.def_108 (and .def_66 .def_107)))
(let ((.def_13 (and .def_10 .def_12)))
(let ((.def_81 (and .def_13 .PC.2)))
(let ((.def_109 (and .def_81 .def_108)))
(let ((.def_45 (and .def_43 .PC.0.next)))
(let ((.def_95 (and .PC.2.next .def_45)))
(let ((.def_88 (not .def_87)))
(let ((.def_89 (and .def_70 .def_88)))
(let ((.def_90 (and .def_34 .def_89)))
(let ((.def_91 (and .def_57 .def_90)))
(let ((.def_92 (and .def_38 .def_91)))
(let ((.def_93 (and .def_60 .def_92)))
(let ((.def_94 (and .def_62 .def_93)))
(let ((.def_96 (and .def_94 .def_95)))
(let ((.def_97 (and .def_81 .def_96)))
(let ((.def_73 (bvadd (_ bv4 32) i__1$main)))
(let ((.def_74 (= i__1$main.next .def_73)))
(let ((.def_71 (not .def_70)))
(let ((.def_75 (and .def_71 .def_74)))
(let ((.def_76 (and .def_34 .def_75)))
(let ((.def_77 (and .def_57 .def_76)))
(let ((.def_78 (and .def_38 .def_77)))
(let ((.def_79 (and .def_60 .def_78)))
(let ((.def_41 (not .PC.2.next)))
(let ((.def_46 (and .def_41 .def_45)))
(let ((.def_80 (and .def_46 .def_79)))
(let ((.def_82 (and .def_80 .def_81)))
(let ((.def_54 (= j__3$main.next i__1$main)))
(let ((.def_53 (bvslt i__1$main n__7$main)))
(let ((.def_55 (and .def_53 .def_54)))
(let ((.def_58 (and .def_55 .def_57)))
(let ((.def_59 (and .def_38 .def_58)))
(let ((.def_61 (and .def_59 .def_60)))
(let ((.def_63 (and .def_61 .def_62)))
(let ((.def_67 (and .def_63 .def_66)))
(let ((.def_15 (not .PC.2)))
(let ((.def_50 (and .def_15 .def_49)))
(let ((.def_68 (and .def_50 .def_67)))
(let ((.def_30 (= i__1$main.next (_ bv0 32))))
(let ((.def_25 (bvadd (_ bv1 32) m__9$main.next)))
(let ((.def_26 (bvslt .def_25 n__7$main.next)))
(let ((.def_22 (= m__9$main.next |__NONDET_INLINE_INIT__10__9$main#1|)))
(let ((.def_19 (= n__7$main.next |__NONDET_INLINE_INIT__8__8$main#0|)))
(let ((.def_23 (and .def_19 .def_22)))
(let ((.def_27 (and .def_23 .def_26)))
(let ((.def_31 (and .def_27 .def_30)))
(let ((.def_35 (and .def_31 .def_34)))
(let ((.def_39 (and .def_35 .def_38)))
(let ((.def_47 (and .def_39 .def_46)))
(let ((.def_16 (and .def_13 .def_15)))
(let ((.def_48 (and .def_16 .def_47)))
(let ((.def_69 (or .def_48 .def_68)))
(let ((.def_83 (or .def_69 .def_82)))
(let ((.def_98 (or .def_83 .def_97)))
(let ((.def_110 (or .def_98 .def_109)))
(let ((.def_120 (or .def_110 .def_119)))
(let ((.def_124 (or .def_120 .def_123)))
.def_124)))))))))))))))))))))))))))))))))))))))))))))))))))))))))))))))))))))))))))))))))))))))))))))) (state |.PC.0.next| |.PC.1.next| |.PC.2.next| |j__3$main.next| |__RET__$main.next| |n__7$main.next| |i__1$main.next| |m__9$main.next|))))
(assert (forall ((|.PC.0.next| Bool) (|.PC.1.next| Bool) (|.PC.2.next| Bool) (|m__9$main| (_ BitVec 32)) (|m__9$main.next| (_ BitVec 32)) (|j__3$main.next| (_ BitVec 32)) (|j__3$main| (_ BitVec 32)) (|__RET__$main.next| (_ BitVec 32)) (|__RET__$main| (_ BitVec 32)) (|n__7$main| (_ BitVec 32)) (|n__7$main.next| (_ BitVec 32)) (|i__1$main| (_ BitVec 32)) (|i__1$main.next| (_ BitVec 32)) (|__NONDET_INLINE_INIT__10__9$main#1| (_ BitVec 32)) (|__NONDET_INLINE_INIT__8__8$main#0| (_ BitVec 32)) (|.PC.2| Bool) (|.PC.1| Bool) (|.PC.0| Bool)) (=> (state |.PC.0| |.PC.1| |.PC.2| |j__3$main| |__RET__$main| |n__7$main| |i__1$main| |m__9$main|) (let ((.def_10 (not .PC.0)))
(let ((.def_121 (and .def_10 .PC.1)))
(let ((.def_122 (and .PC.2 .def_121)))
(let ((.def_125 (not .def_122)))
.def_125)))))))
(check-sat)
